38
75
52	9
51	13
50	6
49	6
48	7
47	3
46	4
45	7
44	5
43	10
42	11
41	4
40	5
39	5
38	8
37	7
36	13
35	5
34	8
33	12
32	8
31	6
30	9
29	15
28	14
27	5
26	6
25	4
24	7
23	9
22	6
21	4
20	8
19	11
18	13
17	6
16	9
15	12
